c A SAT instance generated from a 3-CNF formula that had 22 clauses and 11 variables
p cnf 11 22
-7 4 10 0
11 -4 -8 0
6 -9 -5 0
-4 -7 -11 0
10 -1 5 0
10 9 5 0
-1 8 9 0
3 -2 -10 0
9 -10 1 0
-1 4 -2 0
6 10 7 0
-11 10 -4 0
1 -4 7 0
11 2 9 0
9 4 3 0
1 7 9 0
-5 -1 4 0
-11 4 -6 0
2 8 9 0
3 -4 6 0
-4 6 7 0
-10 -4 -8 0
